400 40 1 31277
400 40 2 31320
400 40 3 30406
400 45 1 31465
400 45 2 31209
400 45 3 31244
400 50 1 31465
400 50 2 31527
400 50 3 30737
400 55 1 31465
400 55 2 31527
400 55 3 31076
400 60 1 31527
400 60 2 31527
400 60 3 30696
450 40 1 31465
450 40 2 31527
450 40 3 30681
450 45 1 31465
450 45 2 31393
450 45 3 31041
450 50 1 31527
450 50 2 31527
450 50 3 30753
450 55 1 31527
450 55 2 31527
450 55 3 30866
450 60 1 31285
450 60 2 31393
450 60 3 30929
500 40 1 31465
500 40 2 31394
500 40 3 31152
500 45 1 31527
500 45 2 31394
500 45 3 31169
500 50 1 31465
500 50 2 31465
500 50 3 30687
500 55 1 31527
500 55 2 31285
500 55 3 31100
500 60 1 31527
500 60 2 31465
500 60 3 31013
best: popul=400 in_tour=50 mutati=2 fitness=31527
42 75 0  0 0 0 0 0 0 0 0 0 0 0 0 0 0 0 0 0 0 0 0 0 0 0 0 0 0 0 0 0 0 0 0 0 0 0 0 0 0 0 0 0 0 0 0 0 0 0 0 0 0 0 0 0 0 0 0 0 0 0 0 0 0 0 0 0 0 0 0 0 0 0 0 0 0 0
